n_res = 4;
rc = [ 16, 19, 21, 17 ];
n_tasks = 30;
d = [ 5, 6, 1, 10, 7, 8, 6, 10, 8, 7, 4, 1, 9, 5, 3, 4, 2, 6, 8, 3, 3, 3, 10, 10, 10, 8, 9, 3, 3, 10 ];
rr = [| 2, 0, 0, 0, 0, 0, 6, 0, 1, 10, 2, 9, 8, 4, 3, 4, 0, 0, 3, 3, 0, 0, 0, 0, 0, 5, 7, 0, 0, 0
      | 4, 1, 4, 10, 4, 2, 0, 5, 0, 0, 2, 0, 5, 6, 0, 6, 1, 0, 10, 0, 6, 5, 0, 3, 0, 0, 5, 0, 6, 0
      | 0, 3, 0, 8, 7, 0, 0, 8, 10, 0, 0, 0, 0, 0, 2, 0, 6, 5, 9, 2, 0, 0, 2, 0, 3, 2, 10, 7, 0, 8
      | 1, 0, 0, 3, 0, 6, 0, 1, 0, 0, 2, 10, 0, 0, 0, 0, 5, 0, 0, 0, 0, 8, 5, 0, 7, 0, 1, 6, 9, 0 |];
suc = [ { 2 }, 
        { 1 }, 
        { 4 }, 
        { 3 }, 
        { 6 }, 
        { 5 }, 
        { 8 }, 
        { 7 }, 
        { 10 }, 
        { 9 }, 
        { 12 }, 
        { 11 }, 
        { 14 }, 
        { 13 }, 
        { 16 }, 
        { 15 }, 
        { 18 }, 
        { 17 }, 
        { 20 }, 
        { 19 }, 
        { 22 }, 
        { 21 }, 
        { 24 }, 
        { 23 }, 
        { 26 }, 
        { 25 }, 
        { 28 }, 
        { 27 }, 
        { 30 }, 
        { 29 }]; 
